NAME          DCAP_2_3_3_200_SS91
ROWS
 N  OBJ
 L  CON1
 L  CON2
 L  CON3
 L  CON4
 L  CON5
 L  CON6
 L  CON7
 L  CON8
 L  CON9
 L  CON10
 L  CON11
 L  CON12
 E  CON13
 E  CON14
 E  CON15
 E  CON16
 E  CON17
 E  CON18
 E  CON19
 E  CON20
 E  CON21
COLUMNS
    x[1,1]    OBJ       6.180167      CON1      1.000000    
    x[1,1]    CON7      -1.000000     CON8      -1.000000   
    x[1,1]    CON9      -1.000000   
    x[1,2]    OBJ       6.563535      CON2      1.000000    
    x[1,2]    CON8      -1.000000     CON9      -1.000000   
    x[1,3]    OBJ       7.443064      CON3      1.000000    
    x[1,3]    CON9      -1.000000   
    x[2,1]    OBJ       6.732585      CON4      1.000000    
    x[2,1]    CON10     -1.000000     CON11     -1.000000   
    x[2,1]    CON12     -1.000000   
    x[2,2]    OBJ       5.039546      CON5      1.000000    
    x[2,2]    CON11     -1.000000     CON12     -1.000000   
    x[2,3]    OBJ       6.054841      CON6      1.000000    
    x[2,3]    CON12     -1.000000   
    MARKER    'MARKER'                'INTORG'
    u[1,1]    OBJ       48.076654     CON1      -1.000000   
    u[1,2]    OBJ       20.066487     CON2      -1.000000   
    u[1,3]    OBJ       32.230043     CON3      -1.000000   
    u[2,1]    OBJ       49.996186     CON4      -1.000000   
    u[2,2]    OBJ       49.466655     CON5      -1.000000   
    u[2,3]    OBJ       27.484319     CON6      -1.000000   
    y[1,1,1]  OBJ       9.254627      CON7      1.226015    
    y[1,1,1]  CON13     1.000000    
    y[1,1,2]  OBJ       6.678291      CON8      0.904867    
    y[1,1,2]  CON14     1.000000    
    y[1,1,3]  OBJ       5.408415      CON9      0.827440    
    y[1,1,3]  CON15     1.000000    
    y[1,2,1]  OBJ       9.273145      CON7      0.533528    
    y[1,2,1]  CON16     1.000000    
    y[1,2,2]  OBJ       9.631130      CON8      0.839297    
    y[1,2,2]  CON17     1.000000    
    y[1,2,3]  OBJ       8.910582      CON9      0.731740    
    y[1,2,3]  CON18     1.000000    
    y[1,3,1]  OBJ       5.031590      CON7      0.894296    
    y[1,3,1]  CON19     1.000000    
    y[1,3,2]  OBJ       8.919984      CON8      1.000866    
    y[1,3,2]  CON20     1.000000    
    y[1,3,3]  OBJ       5.230800      CON9      1.015373    
    y[1,3,3]  CON21     1.000000    
    y[2,1,1]  OBJ       8.843272      CON10     1.226015    
    y[2,1,1]  CON13     1.000000    
    y[2,1,2]  OBJ       5.687797      CON11     0.904867    
    y[2,1,2]  CON14     1.000000    
    y[2,1,3]  OBJ       8.817456      CON12     0.827440    
    y[2,1,3]  CON15     1.000000    
    y[2,2,1]  OBJ       5.530038      CON10     0.533528    
    y[2,2,1]  CON16     1.000000    
    y[2,2,2]  OBJ       7.701619      CON11     0.839297    
    y[2,2,2]  CON17     1.000000    
    y[2,2,3]  OBJ       6.458774      CON12     0.731740    
    y[2,2,3]  CON18     1.000000    
    y[2,3,1]  OBJ       5.212721      CON10     0.894296    
    y[2,3,1]  CON19     1.000000    
    y[2,3,2]  OBJ       8.378475      CON11     1.000866    
    y[2,3,2]  CON20     1.000000    
    y[2,3,3]  OBJ       6.911809      CON12     1.015373    
    y[2,3,3]  CON21     1.000000    
    z[1,1]    OBJ       870.257391    CON13     1.000000    
    z[1,2]    OBJ       518.538949    CON14     1.000000    
    z[1,3]    OBJ       964.932867    CON15     1.000000    
    z[2,1]    OBJ       895.947547    CON16     1.000000    
    z[2,2]    OBJ       554.350485    CON17     1.000000    
    z[2,3]    OBJ       590.494435    CON18     1.000000    
    z[3,1]    OBJ       777.628633    CON19     1.000000    
    z[3,2]    OBJ       631.424192    CON20     1.000000    
    z[3,3]    OBJ       756.971409    CON21     1.000000    
    MARKER    'MARKER'                 'INTEND'
RHS
    RHS       CON1      -0.000000     CON2      -0.000000   
    RHS       CON3      -0.000000     CON4      -0.000000   
    RHS       CON5      -0.000000     CON6      -0.000000   
    RHS       CON7      -0.000000     CON8      -0.000000   
    RHS       CON9      -0.000000     CON10     -0.000000   
    RHS       CON11     -0.000000     CON12     -0.000000   
    RHS       CON13     1.000000      CON14     1.000000    
    RHS       CON15     1.000000      CON16     1.000000    
    RHS       CON17     1.000000      CON18     1.000000    
    RHS       CON19     1.000000      CON20     1.000000    
    RHS       CON21     1.000000    
BOUNDS
 BV BOUND     u[1,1]  
 BV BOUND     u[1,2]  
 BV BOUND     u[1,3]  
 BV BOUND     u[2,1]  
 BV BOUND     u[2,2]  
 BV BOUND     u[2,3]  
 BV BOUND     y[1,1,1]
 BV BOUND     y[1,1,2]
 BV BOUND     y[1,1,3]
 BV BOUND     y[1,2,1]
 BV BOUND     y[1,2,2]
 BV BOUND     y[1,2,3]
 BV BOUND     y[1,3,1]
 BV BOUND     y[1,3,2]
 BV BOUND     y[1,3,3]
 BV BOUND     y[2,1,1]
 BV BOUND     y[2,1,2]
 BV BOUND     y[2,1,3]
 BV BOUND     y[2,2,1]
 BV BOUND     y[2,2,2]
 BV BOUND     y[2,2,3]
 BV BOUND     y[2,3,1]
 BV BOUND     y[2,3,2]
 BV BOUND     y[2,3,3]
 BV BOUND     z[1,1]  
 BV BOUND     z[1,2]  
 BV BOUND     z[1,3]  
 BV BOUND     z[2,1]  
 BV BOUND     z[2,2]  
 BV BOUND     z[2,3]  
 BV BOUND     z[3,1]  
 BV BOUND     z[3,2]  
 BV BOUND     z[3,3]  
ENDATA
